62 63 70 74 75 78 79 80 88 91 92 92 92 92 99 106 107 109 110 111 116 118 120 120 123 123 123 125 126 127 130 135 137 139 140 141 142 143 144 146 147 152 155 155 159 160 164 165 166 168 168 169 171 174 177 179 182 183 190 194 195 198 199 200 208 211 212 212 212 212 219 226 227 229 230 231 236 238 240 240 243 243 243 245 246 247 250 255 257 259 260 261 262 263 264 266 267 272 275 275 279 280 284 285 286 288 288 289 291 294 297 299